************************************************************************
file with basedata            : mm36_.bas
initial value random generator: 1256928323
************************************************************************
projects                      :  1
jobs (incl. supersource/sink ):  12
horizon                       :  84
RESOURCES
  - renewable                 :  2   R
  - nonrenewable              :  2   N
  - doubly constrained        :  0   D
************************************************************************
PROJECT INFORMATION:
pronr.  #jobs rel.date duedate tardcost  MPM-Time
    1     10      0       19        4       19
************************************************************************
PRECEDENCE RELATIONS:
jobnr.    #modes  #successors   successors
   0        1          3           1   2   3
   1        3          3           4   5   8
   2        3          2           7   8
   3        3          1           5
   4        3          1           6
   5        3          2           6   7
   6        3          1           9
   7        3          2           9  10
   8        3          1          11
   9        3          1          11
  10        3          1          11
  11        1          0        
************************************************************************
REQUESTS/DURATIONS:
jobnr. mode duration  R 1  R 2  R 3  R 4  E(W 1)  E(W 2)
------------------------------------------------------------------------
  0      1     0       0    0    0    0     0       0
  1      1     2       7    6    9    0    26      18
  2      1     5       7    5    0   10    60      50
  3      1     3       7    6    0    4    39      12
  4      1     6       5    6    0    8    66      48
  5      1     7       9    9    0    6    126      42
  6      1     7       9    2    0   10    77      70
  7      1     2      10    7    8    0    34      16
  8      1     3       9    7    0    7    48      21
  9      1     2       9    7    0   10    32      20
 10      1     3       8    3    0    6    33      18
 11      1     0       0    0    0    0     0       0
************************************************************************
RESOURCEAVAILABILITIES:
  R 1  R 2
   23   122
************************************************************************
RESOURCE LIMITS:
jobnr.  l(R 1)  u(R 1)  l(R 2)  u(R 2)
------------------------------------------------------------------------
  0        0       0       0       0
  1        7      13       5       9
  2        7      12       5      10
  3        7      13       2       4
  4        6      11       4       8
  5       10      18       3       6
  6        6      11       5      10
  7        9      17       4       8
  8        9      16       4       7
  9        9      16       5      10
 10        6      11       3       6
 11        0       0       0       0
************************************************************************
SCENARIOS:
------------------------------------------------------------------------
RESOURCE k = 1
s = 1: (0, 18, 65, 39, 46, 136, 51, 20, 48, 20, 34, 0)
s = 2: (0, 21, 67, 30, 64, 84, 79, 37, 45, 40, 32, 0)
s = 3: (0, 25, 79, 68, 75, 115, 45, 51, 47, 32, 42, 0)
s = 4: (0, 26, 39, 37, 62, 124, 69, 38, 27, 34, 50, 0)
s = 5: (0, 30, 75, 53, 58, 157, 131, 23, 42, 32, 41, 0)
s = 6: (0, 24, 48, 31, 82, 147, 68, 29, 61, 38, 23, 0)
s = 7: (0, 17, 79, 51, 86, 229, 75, 37, 26, 38, 24, 0)
s = 8: (0, 26, 68, 45, 53, 115, 92, 35, 42, 25, 38, 0)
s = 9: (0, 26, 75, 42, 76, 160, 118, 36, 60, 42, 34, 0)
s = 10: (0, 18, 68, 33, 61, 169, 71, 30, 70, 35, 37, 0)
s = 11: (0, 30, 63, 34, 65, 151, 52, 27, 51, 28, 34, 0)
s = 12: (0, 30, 59, 36, 86, 68, 82, 29, 41, 24, 32, 0)
s = 13: (0, 19, 49, 45, 68, 105, 63, 28, 60, 44, 27, 0)
s = 14: (0, 20, 74, 39, 54, 123, 76, 26, 28, 24, 25, 0)
s = 15: (0, 38, 64, 42, 105, 155, 49, 41, 54, 22, 22, 0)
s = 16: (0, 26, 97, 35, 53, 98, 96, 34, 39, 22, 58, 0)
s = 17: (0, 22, 61, 33, 35, 92, 86, 21, 29, 41, 26, 0)
s = 18: (0, 31, 51, 24, 110, 127, 98, 32, 83, 46, 46, 0)
s = 19: (0, 24, 51, 36, 50, 176, 58, 32, 43, 31, 24, 0)
s = 20: (0, 20, 68, 28, 45, 85, 70, 29, 41, 23, 46, 0)
s = 21: (0, 26, 70, 32, 85, 115, 59, 33, 52, 28, 29, 0)
s = 22: (0, 16, 38, 24, 37, 94, 80, 32, 42, 30, 55, 0)
s = 23: (0, 30, 62, 64, 89, 78, 64, 28, 41, 26, 43, 0)
s = 24: (0, 24, 60, 41, 86, 117, 143, 22, 33, 37, 25, 0)
s = 25: (0, 32, 49, 30, 60, 138, 78, 38, 44, 35, 28, 0)
s = 26: (0, 35, 68, 30, 48, 121, 57, 21, 27, 19, 27, 0)
s = 27: (0, 24, 87, 32, 76, 134, 107, 47, 65, 28, 41, 0)
s = 28: (0, 19, 55, 36, 49, 101, 74, 44, 42, 32, 49, 0)
s = 29: (0, 31, 66, 31, 67, 95, 67, 43, 44, 46, 42, 0)
s = 30: (0, 24, 57, 77, 47, 96, 65, 39, 69, 36, 24, 0)
s = 31: (0, 16, 42, 59, 59, 113, 63, 33, 66, 25, 21, 0)
s = 32: (0, 21, 58, 52, 53, 138, 62, 52, 32, 22, 44, 0)
s = 33: (0, 15, 47, 36, 129, 170, 58, 38, 49, 29, 29, 0)
s = 34: (0, 46, 84, 37, 60, 127, 82, 36, 61, 27, 47, 0)
s = 35: (0, 44, 71, 33, 76, 94, 130, 37, 71, 22, 49, 0)
s = 36: (0, 16, 68, 49, 38, 157, 59, 31, 34, 37, 21, 0)
s = 37: (0, 29, 69, 47, 77, 108, 75, 24, 45, 38, 32, 0)
s = 38: (0, 21, 68, 26, 80, 96, 62, 30, 44, 38, 27, 0)
s = 39: (0, 27, 101, 43, 62, 113, 51, 38, 58, 24, 31, 0)
s = 40: (0, 38, 52, 44, 60, 213, 74, 35, 32, 17, 25, 0)
s = 41: (0, 22, 77, 23, 67, 141, 75, 52, 35, 47, 53, 0)
s = 42: (0, 27, 41, 45, 106, 197, 58, 37, 61, 26, 40, 0)
s = 43: (0, 37, 41, 29, 56, 75, 90, 21, 58, 30, 38, 0)
s = 44: (0, 26, 86, 42, 70, 89, 63, 33, 56, 31, 25, 0)
s = 45: (0, 36, 43, 29, 41, 85, 88, 41, 35, 25, 31, 0)
s = 46: (0, 40, 49, 55, 60, 105, 100, 29, 44, 31, 40, 0)
s = 47: (0, 28, 60, 42, 72, 166, 52, 51, 55, 23, 24, 0)
s = 48: (0, 29, 34, 40, 77, 153, 123, 40, 39, 38, 49, 0)
s = 49: (0, 30, 73, 42, 48, 192, 96, 52, 42, 20, 28, 0)
s = 50: (0, 25, 46, 48, 72, 116, 70, 31, 54, 30, 33, 0)
s = 51: (0, 18, 93, 50, 60, 159, 80, 32, 44, 28, 32, 0)
s = 52: (0, 40, 42, 67, 66, 203, 65, 30, 69, 47, 35, 0)
s = 53: (0, 40, 68, 41, 72, 149, 49, 40, 40, 31, 18, 0)
s = 54: (0, 28, 60, 43, 66, 93, 95, 39, 30, 42, 27, 0)
s = 55: (0, 20, 41, 35, 62, 136, 87, 21, 52, 29, 42, 0)
s = 56: (0, 39, 68, 50, 63, 96, 63, 30, 62, 33, 28, 0)
s = 57: (0, 23, 54, 46, 80, 123, 50, 36, 48, 36, 32, 0)
s = 58: (0, 27, 52, 40, 45, 138, 105, 23, 55, 30, 45, 0)
s = 59: (0, 21, 60, 59, 93, 109, 96, 27, 60, 21, 40, 0)
s = 60: (0, 26, 51, 51, 57, 182, 64, 42, 46, 39, 21, 0)
s = 61: (0, 24, 73, 42, 90, 146, 96, 58, 36, 43, 46, 0)
s = 62: (0, 14, 56, 36, 81, 170, 73, 20, 68, 59, 30, 0)
s = 63: (0, 26, 64, 43, 86, 139, 66, 27, 55, 39, 52, 0)
s = 64: (0, 14, 51, 32, 55, 177, 44, 30, 52, 42, 34, 0)
s = 65: (0, 19, 39, 37, 58, 207, 54, 24, 57, 34, 25, 0)
s = 66: (0, 33, 94, 34, 89, 149, 50, 56, 74, 18, 47, 0)
s = 67: (0, 25, 87, 32, 62, 93, 62, 26, 34, 26, 34, 0)
s = 68: (0, 22, 46, 61, 79, 116, 81, 24, 34, 45, 51, 0)
s = 69: (0, 25, 92, 26, 72, 145, 83, 38, 66, 38, 36, 0)
s = 70: (0, 21, 52, 65, 52, 103, 53, 37, 59, 25, 28, 0)
s = 71: (0, 21, 52, 27, 68, 74, 81, 40, 32, 53, 26, 0)
s = 72: (0, 43, 74, 31, 70, 185, 59, 28, 60, 34, 21, 0)
s = 73: (0, 24, 42, 21, 93, 137, 43, 28, 60, 25, 30, 0)
s = 74: (0, 19, 68, 25, 109, 90, 88, 22, 30, 29, 23, 0)
s = 75: (0, 30, 59, 43, 62, 75, 101, 55, 62, 49, 24, 0)
s = 76: (0, 24, 79, 34, 65, 66, 105, 31, 53, 28, 31, 0)
s = 77: (0, 20, 64, 39, 59, 183, 93, 29, 36, 61, 21, 0)
s = 78: (0, 26, 76, 41, 96, 90, 46, 49, 84, 56, 27, 0)
s = 79: (0, 34, 88, 28, 100, 145, 92, 46, 66, 23, 17, 0)
s = 80: (0, 27, 54, 40, 58, 147, 52, 47, 42, 17, 26, 0)
s = 81: (0, 33, 54, 51, 62, 104, 54, 45, 48, 53, 39, 0)
s = 82: (0, 25, 68, 60, 75, 128, 62, 41, 57, 40, 43, 0)
s = 83: (0, 20, 38, 58, 61, 95, 53, 23, 39, 26, 44, 0)
s = 84: (0, 38, 68, 40, 56, 112, 73, 38, 32, 35, 32, 0)
s = 85: (0, 53, 64, 57, 85, 159, 81, 63, 52, 33, 37, 0)
s = 86: (0, 41, 48, 35, 62, 121, 100, 24, 55, 43, 29, 0)
s = 87: (0, 27, 85, 48, 60, 141, 94, 35, 43, 33, 42, 0)
s = 88: (0, 23, 90, 29, 75, 102, 118, 40, 56, 42, 22, 0)
s = 89: (0, 30, 90, 23, 53, 158, 45, 45, 54, 30, 29, 0)
s = 90: (0, 34, 43, 37, 69, 137, 71, 42, 34, 42, 45, 0)
s = 91: (0, 30, 83, 35, 54, 125, 92, 32, 63, 48, 23, 0)
s = 92: (0, 32, 39, 51, 72, 104, 117, 46, 61, 53, 57, 0)
s = 93: (0, 22, 63, 50, 61, 138, 89, 25, 42, 31, 42, 0)
s = 94: (0, 25, 78, 38, 58, 168, 112, 25, 35, 32, 52, 0)
s = 95: (0, 26, 90, 30, 74, 99, 75, 46, 47, 27, 30, 0)
s = 96: (0, 25, 69, 54, 60, 84, 123, 26, 43, 39, 31, 0)
s = 97: (0, 22, 79, 30, 50, 102, 49, 32, 35, 28, 22, 0)
s = 98: (0, 18, 41, 44, 64, 115, 58, 37, 45, 26, 20, 0)
s = 99: (0, 22, 45, 26, 61, 101, 84, 21, 32, 39, 26, 0)
s = 100: (0, 26, 58, 61, 47, 122, 45, 21, 59, 23, 43, 0)
s = 101: (0, 32, 80, 39, 55, 68, 94, 64, 40, 43, 25, 0)
s = 102: (0, 15, 70, 52, 86, 124, 106, 23, 66, 31, 21, 0)
s = 103: (0, 25, 81, 48, 92, 97, 53, 30, 71, 30, 28, 0)
s = 104: (0, 14, 72, 32, 34, 98, 77, 25, 35, 22, 43, 0)
s = 105: (0, 20, 44, 35, 70, 123, 67, 44, 81, 30, 22, 0)
s = 106: (0, 17, 38, 35, 40, 135, 82, 44, 66, 27, 40, 0)
s = 107: (0, 25, 64, 40, 101, 144, 65, 30, 44, 28, 30, 0)
s = 108: (0, 19, 90, 43, 95, 98, 109, 19, 61, 44, 21, 0)
s = 109: (0, 22, 55, 34, 63, 159, 73, 26, 49, 26, 31, 0)
s = 110: (0, 22, 57, 40, 55, 131, 97, 38, 72, 26, 22, 0)
s = 111: (0, 40, 42, 35, 65, 123, 46, 39, 43, 26, 46, 0)
s = 112: (0, 32, 42, 46, 52, 123, 46, 29, 64, 34, 39, 0)
s = 113: (0, 23, 60, 50, 52, 177, 104, 39, 50, 31, 25, 0)
s = 114: (0, 31, 64, 27, 53, 141, 101, 21, 68, 45, 24, 0)
s = 115: (0, 22, 44, 46, 47, 72, 57, 30, 56, 43, 21, 0)
s = 116: (0, 27, 62, 23, 57, 115, 66, 25, 36, 35, 34, 0)
s = 117: (0, 18, 53, 31, 43, 130, 113, 41, 55, 28, 30, 0)
s = 118: (0, 18, 57, 38, 67, 121, 71, 60, 37, 36, 48, 0)
s = 119: (0, 23, 80, 46, 53, 156, 67, 23, 42, 47, 51, 0)
s = 120: (0, 21, 39, 38, 67, 149, 57, 47, 35, 28, 39, 0)
s = 121: (0, 33, 62, 30, 46, 90, 62, 46, 30, 37, 38, 0)
s = 122: (0, 36, 48, 57, 63, 142, 78, 56, 29, 20, 26, 0)
s = 123: (0, 18, 38, 63, 57, 93, 73, 43, 36, 38, 37, 0)
s = 124: (0, 30, 59, 37, 67, 91, 57, 24, 30, 48, 31, 0)
s = 125: (0, 35, 45, 34, 62, 127, 92, 37, 31, 37, 32, 0)
s = 126: (0, 40, 95, 32, 44, 141, 107, 21, 42, 19, 22, 0)
s = 127: (0, 26, 106, 29, 62, 80, 59, 24, 40, 35, 30, 0)
s = 128: (0, 26, 45, 20, 59, 121, 101, 58, 63, 32, 35, 0)
s = 129: (0, 29, 45, 26, 67, 93, 82, 44, 31, 21, 30, 0)
s = 130: (0, 24, 84, 31, 113, 145, 56, 35, 31, 30, 22, 0)
s = 131: (0, 32, 38, 38, 60, 130, 104, 46, 38, 35, 21, 0)
s = 132: (0, 29, 39, 28, 60, 148, 62, 44, 56, 24, 24, 0)
s = 133: (0, 30, 54, 46, 73, 131, 47, 35, 43, 26, 39, 0)
s = 134: (0, 26, 74, 23, 54, 138, 52, 39, 55, 43, 25, 0)
s = 135: (0, 23, 56, 58, 48, 89, 113, 29, 41, 45, 29, 0)
s = 136: (0, 33, 51, 28, 64, 151, 79, 25, 51, 27, 31, 0)
s = 137: (0, 33, 78, 51, 52, 109, 83, 25, 32, 34, 33, 0)
s = 138: (0, 16, 72, 36, 64, 157, 74, 39, 51, 38, 34, 0)
s = 139: (0, 21, 49, 31, 53, 70, 94, 25, 73, 27, 30, 0)
s = 140: (0, 19, 72, 38, 55, 76, 98, 34, 45, 41, 32, 0)
s = 141: (0, 33, 81, 33, 72, 107, 49, 51, 46, 22, 30, 0)
s = 142: (0, 32, 85, 51, 99, 152, 122, 29, 35, 26, 38, 0)
s = 143: (0, 24, 67, 44, 72, 194, 57, 48, 35, 23, 50, 0)
s = 144: (0, 29, 68, 30, 82, 116, 117, 32, 30, 28, 36, 0)
s = 145: (0, 19, 63, 37, 44, 178, 110, 34, 31, 20, 50, 0)
s = 146: (0, 34, 58, 58, 56, 103, 73, 34, 43, 36, 26, 0)
s = 147: (0, 17, 69, 44, 88, 164, 118, 62, 46, 22, 47, 0)
s = 148: (0, 32, 74, 44, 81, 146, 69, 19, 57, 18, 26, 0)
s = 149: (0, 43, 106, 43, 82, 179, 66, 27, 63, 18, 29, 0)
s = 150: (0, 39, 81, 27, 112, 98, 60, 37, 39, 28, 18, 0)
s = 151: (0, 15, 52, 27, 62, 149, 97, 24, 30, 30, 32, 0)
s = 152: (0, 37, 63, 41, 102, 93, 53, 31, 45, 30, 21, 0)
s = 153: (0, 42, 32, 68, 80, 94, 43, 42, 26, 34, 32, 0)
s = 154: (0, 20, 41, 24, 95, 187, 79, 47, 43, 35, 48, 0)
s = 155: (0, 32, 52, 34, 117, 211, 70, 28, 50, 36, 25, 0)
s = 156: (0, 28, 50, 32, 55, 99, 82, 49, 60, 37, 35, 0)
s = 157: (0, 26, 52, 35, 65, 124, 56, 38, 45, 31, 26, 0)
s = 158: (0, 20, 58, 49, 71, 101, 54, 34, 48, 27, 29, 0)
s = 159: (0, 33, 71, 55, 46, 159, 68, 25, 65, 22, 25, 0)
s = 160: (0, 22, 50, 50, 60, 85, 74, 36, 55, 29, 44, 0)
s = 161: (0, 23, 47, 29, 38, 70, 115, 30, 59, 36, 40, 0)
s = 162: (0, 30, 41, 46, 115, 76, 78, 33, 30, 23, 26, 0)
s = 163: (0, 29, 33, 52, 77, 172, 76, 31, 51, 31, 43, 0)
s = 164: (0, 24, 64, 42, 89, 95, 115, 46, 53, 25, 22, 0)
s = 165: (0, 23, 80, 24, 67, 197, 74, 28, 39, 37, 22, 0)
s = 166: (0, 22, 61, 47, 52, 105, 109, 55, 73, 21, 34, 0)
s = 167: (0, 18, 55, 51, 86, 76, 46, 36, 35, 21, 38, 0)
s = 168: (0, 33, 40, 35, 74, 98, 78, 33, 51, 29, 52, 0)
s = 169: (0, 20, 71, 50, 62, 117, 103, 25, 41, 25, 38, 0)
s = 170: (0, 23, 58, 48, 78, 80, 60, 39, 53, 20, 31, 0)
s = 171: (0, 25, 50, 50, 56, 114, 77, 25, 37, 40, 45, 0)
s = 172: (0, 26, 75, 46, 58, 96, 60, 40, 36, 20, 22, 0)
s = 173: (0, 20, 35, 66, 75, 124, 86, 43, 68, 23, 24, 0)
s = 174: (0, 19, 51, 36, 56, 122, 65, 38, 50, 37, 54, 0)
s = 175: (0, 40, 63, 30, 70, 86, 73, 28, 57, 24, 42, 0)
s = 176: (0, 24, 74, 52, 41, 105, 76, 53, 48, 36, 32, 0)
s = 177: (0, 14, 66, 50, 47, 168, 85, 44, 55, 29, 44, 0)
s = 178: (0, 28, 49, 46, 45, 166, 109, 35, 43, 26, 31, 0)
s = 179: (0, 29, 63, 34, 51, 117, 99, 55, 41, 42, 23, 0)
s = 180: (0, 16, 99, 49, 56, 73, 108, 52, 34, 22, 54, 0)
s = 181: (0, 22, 68, 35, 49, 152, 110, 25, 54, 26, 25, 0)
s = 182: (0, 36, 65, 40, 91, 137, 106, 31, 36, 25, 33, 0)
s = 183: (0, 22, 50, 41, 54, 91, 90, 24, 43, 29, 33, 0)
s = 184: (0, 26, 48, 52, 103, 69, 93, 28, 52, 36, 50, 0)
s = 185: (0, 23, 61, 52, 111, 103, 62, 54, 49, 45, 20, 0)
s = 186: (0, 25, 44, 28, 82, 108, 86, 30, 84, 23, 21, 0)
s = 187: (0, 17, 39, 57, 68, 81, 96, 34, 54, 21, 34, 0)
s = 188: (0, 42, 72, 37, 45, 166, 87, 21, 79, 24, 22, 0)
s = 189: (0, 18, 46, 57, 70, 82, 110, 43, 45, 27, 33, 0)
s = 190: (0, 23, 73, 63, 48, 84, 64, 27, 58, 35, 43, 0)
s = 191: (0, 22, 47, 47, 41, 116, 80, 22, 31, 22, 53, 0)
s = 192: (0, 32, 55, 29, 56, 76, 95, 23, 28, 31, 32, 0)
s = 193: (0, 31, 53, 54, 43, 168, 81, 27, 54, 45, 40, 0)
s = 194: (0, 25, 34, 45, 60, 182, 87, 44, 70, 18, 27, 0)
s = 195: (0, 17, 62, 63, 75, 133, 54, 42, 59, 19, 48, 0)
s = 196: (0, 19, 62, 31, 41, 142, 76, 50, 66, 20, 30, 0)
s = 197: (0, 23, 69, 45, 66, 99, 56, 45, 41, 41, 51, 0)
s = 198: (0, 27, 65, 62, 79, 189, 65, 37, 35, 45, 36, 0)
s = 199: (0, 22, 53, 41, 65, 174, 77, 29, 59, 26, 36, 0)
s = 200: (0, 18, 50, 45, 56, 86, 62, 30, 40, 46, 31, 0)
------------------------------------------------------------------------
RESOURCE k = 2
s = 1: (0, 13, 54, 12, 34, 46, 47, 9, 21, 13, 19, 0)
s = 2: (0, 15, 56, 9, 47, 28, 72, 18, 20, 25, 17, 0)
s = 3: (0, 18, 66, 21, 54, 39, 41, 24, 21, 20, 23, 0)
s = 4: (0, 18, 33, 12, 46, 42, 63, 18, 12, 22, 28, 0)
s = 5: (0, 21, 63, 17, 42, 53, 119, 11, 19, 20, 23, 0)
s = 6: (0, 17, 40, 10, 59, 49, 62, 14, 27, 24, 13, 0)
s = 7: (0, 12, 66, 16, 63, 77, 68, 18, 12, 24, 13, 0)
s = 8: (0, 18, 57, 14, 38, 39, 83, 17, 19, 16, 21, 0)
s = 9: (0, 18, 62, 13, 56, 54, 108, 17, 26, 26, 19, 0)
s = 10: (0, 12, 57, 11, 44, 57, 64, 15, 31, 22, 20, 0)
s = 11: (0, 21, 53, 11, 47, 51, 47, 13, 22, 17, 19, 0)
s = 12: (0, 21, 50, 11, 62, 23, 75, 14, 18, 15, 18, 0)
s = 13: (0, 13, 41, 14, 49, 35, 57, 14, 27, 28, 15, 0)
s = 14: (0, 14, 62, 12, 39, 41, 69, 12, 12, 15, 14, 0)
s = 15: (0, 26, 53, 13, 77, 52, 45, 19, 24, 14, 12, 0)
s = 16: (0, 18, 81, 11, 38, 33, 87, 16, 17, 14, 32, 0)
s = 17: (0, 15, 51, 10, 26, 31, 78, 10, 13, 26, 14, 0)
s = 18: (0, 22, 42, 8, 80, 43, 89, 15, 37, 29, 26, 0)
s = 19: (0, 17, 43, 11, 37, 59, 53, 15, 19, 19, 13, 0)
s = 20: (0, 14, 57, 9, 33, 29, 64, 14, 18, 15, 25, 0)
s = 21: (0, 18, 59, 10, 62, 39, 54, 16, 23, 18, 16, 0)
s = 22: (0, 11, 31, 8, 27, 32, 73, 15, 18, 19, 30, 0)
s = 23: (0, 21, 52, 20, 65, 26, 58, 13, 18, 16, 24, 0)
s = 24: (0, 17, 50, 13, 62, 39, 130, 11, 15, 23, 14, 0)
s = 25: (0, 22, 41, 10, 44, 46, 71, 18, 19, 22, 16, 0)
s = 26: (0, 25, 57, 10, 35, 41, 52, 10, 12, 12, 15, 0)
s = 27: (0, 17, 73, 10, 55, 45, 97, 22, 29, 18, 23, 0)
s = 28: (0, 14, 46, 12, 36, 34, 67, 21, 19, 20, 27, 0)
s = 29: (0, 22, 55, 10, 49, 32, 61, 20, 20, 29, 23, 0)
s = 30: (0, 16, 48, 24, 35, 32, 59, 18, 30, 23, 13, 0)
s = 31: (0, 11, 35, 18, 43, 38, 57, 16, 29, 16, 11, 0)
s = 32: (0, 15, 48, 16, 39, 46, 56, 25, 14, 14, 24, 0)
s = 33: (0, 11, 39, 11, 94, 57, 52, 18, 22, 18, 16, 0)
s = 34: (0, 32, 70, 12, 44, 43, 75, 17, 27, 17, 26, 0)
s = 35: (0, 30, 59, 11, 55, 32, 118, 18, 31, 14, 27, 0)
s = 36: (0, 12, 57, 15, 28, 53, 54, 15, 15, 24, 11, 0)
s = 37: (0, 20, 57, 15, 56, 36, 68, 11, 20, 24, 18, 0)
s = 38: (0, 15, 57, 8, 58, 32, 56, 14, 20, 24, 15, 0)
s = 39: (0, 19, 84, 14, 46, 38, 47, 18, 26, 15, 17, 0)
s = 40: (0, 27, 44, 14, 44, 71, 68, 17, 14, 11, 14, 0)
s = 41: (0, 16, 64, 7, 49, 47, 68, 25, 16, 30, 29, 0)
s = 42: (0, 19, 34, 14, 77, 66, 53, 18, 27, 16, 22, 0)
s = 43: (0, 26, 34, 9, 41, 25, 82, 10, 26, 19, 21, 0)
s = 44: (0, 18, 72, 13, 51, 30, 58, 16, 25, 20, 14, 0)
s = 45: (0, 25, 36, 9, 30, 29, 80, 19, 16, 16, 17, 0)
s = 46: (0, 28, 41, 17, 44, 35, 91, 14, 20, 20, 22, 0)
s = 47: (0, 20, 50, 13, 53, 56, 48, 24, 24, 15, 13, 0)
s = 48: (0, 20, 28, 13, 56, 51, 112, 19, 17, 24, 27, 0)
s = 49: (0, 21, 61, 13, 35, 64, 87, 25, 19, 13, 15, 0)
s = 50: (0, 18, 39, 15, 53, 39, 63, 15, 24, 19, 18, 0)
s = 51: (0, 13, 78, 16, 44, 53, 72, 15, 20, 18, 17, 0)
s = 52: (0, 28, 35, 21, 48, 68, 60, 14, 31, 30, 19, 0)
s = 53: (0, 28, 56, 13, 53, 50, 44, 19, 18, 19, 10, 0)
s = 54: (0, 19, 50, 14, 48, 31, 86, 19, 13, 26, 15, 0)
s = 55: (0, 14, 34, 11, 45, 46, 79, 10, 23, 18, 23, 0)
s = 56: (0, 27, 57, 16, 46, 32, 57, 14, 27, 21, 15, 0)
s = 57: (0, 16, 45, 15, 58, 41, 45, 17, 21, 23, 18, 0)
s = 58: (0, 19, 43, 13, 33, 46, 95, 11, 24, 19, 25, 0)
s = 59: (0, 15, 50, 19, 68, 37, 88, 13, 27, 13, 22, 0)
s = 60: (0, 18, 43, 16, 42, 61, 58, 20, 20, 25, 12, 0)
s = 61: (0, 17, 61, 13, 66, 49, 87, 28, 16, 27, 26, 0)
s = 62: (0, 10, 47, 11, 59, 57, 67, 10, 30, 37, 17, 0)
s = 63: (0, 18, 54, 14, 63, 47, 60, 13, 24, 25, 28, 0)
s = 64: (0, 10, 42, 10, 40, 59, 40, 15, 23, 26, 19, 0)
s = 65: (0, 13, 33, 12, 43, 69, 49, 12, 25, 21, 14, 0)
s = 66: (0, 23, 79, 11, 65, 50, 45, 27, 33, 12, 26, 0)
s = 67: (0, 18, 72, 10, 45, 31, 57, 13, 15, 16, 19, 0)
s = 68: (0, 15, 38, 19, 58, 39, 74, 11, 15, 28, 28, 0)
s = 69: (0, 17, 77, 8, 52, 49, 76, 18, 29, 24, 20, 0)
s = 70: (0, 15, 44, 20, 38, 35, 48, 18, 26, 16, 16, 0)
s = 71: (0, 15, 43, 9, 49, 25, 74, 19, 14, 34, 15, 0)
s = 72: (0, 30, 62, 10, 51, 62, 53, 13, 27, 22, 12, 0)
s = 73: (0, 17, 35, 7, 68, 46, 39, 13, 26, 16, 17, 0)
s = 74: (0, 13, 57, 8, 80, 30, 80, 11, 13, 18, 13, 0)
s = 75: (0, 21, 49, 13, 45, 25, 92, 26, 27, 31, 13, 0)
s = 76: (0, 17, 66, 11, 48, 22, 95, 15, 23, 17, 17, 0)
s = 77: (0, 14, 53, 12, 43, 61, 84, 14, 16, 38, 12, 0)
s = 78: (0, 18, 64, 13, 70, 30, 42, 23, 37, 35, 15, 0)
s = 79: (0, 24, 73, 9, 73, 49, 83, 22, 29, 14, 10, 0)
s = 80: (0, 19, 45, 13, 42, 49, 47, 22, 19, 11, 14, 0)
s = 81: (0, 23, 45, 16, 45, 35, 49, 22, 21, 33, 22, 0)
s = 82: (0, 18, 57, 19, 55, 43, 57, 20, 25, 25, 24, 0)
s = 83: (0, 14, 32, 18, 45, 32, 48, 11, 17, 17, 24, 0)
s = 84: (0, 26, 57, 13, 41, 38, 66, 18, 14, 22, 18, 0)
s = 85: (0, 37, 54, 18, 62, 53, 74, 30, 23, 21, 20, 0)
s = 86: (0, 28, 40, 11, 46, 41, 91, 12, 25, 27, 16, 0)
s = 87: (0, 19, 71, 15, 44, 47, 85, 17, 19, 21, 23, 0)
s = 88: (0, 16, 75, 9, 54, 34, 107, 19, 25, 26, 12, 0)
s = 89: (0, 21, 75, 8, 39, 53, 41, 22, 24, 19, 16, 0)
s = 90: (0, 24, 36, 12, 50, 46, 64, 20, 15, 26, 25, 0)
s = 91: (0, 21, 69, 11, 39, 42, 84, 15, 28, 30, 13, 0)
s = 92: (0, 22, 33, 16, 53, 35, 106, 22, 27, 33, 31, 0)
s = 93: (0, 15, 52, 16, 45, 46, 81, 12, 19, 20, 23, 0)
s = 94: (0, 17, 65, 12, 42, 56, 102, 12, 16, 20, 29, 0)
s = 95: (0, 18, 75, 10, 54, 33, 68, 22, 21, 17, 17, 0)
s = 96: (0, 18, 58, 17, 44, 28, 112, 12, 19, 24, 17, 0)
s = 97: (0, 16, 66, 10, 36, 34, 45, 15, 16, 18, 12, 0)
s = 98: (0, 13, 34, 14, 47, 39, 53, 18, 20, 16, 11, 0)
s = 99: (0, 15, 37, 8, 44, 34, 76, 10, 14, 24, 15, 0)
s = 100: (0, 18, 48, 19, 34, 41, 41, 10, 26, 15, 24, 0)
s = 101: (0, 22, 67, 12, 40, 23, 86, 30, 18, 27, 14, 0)
s = 102: (0, 11, 59, 16, 63, 42, 96, 11, 29, 20, 12, 0)
s = 103: (0, 18, 68, 15, 67, 33, 48, 14, 31, 19, 16, 0)
s = 104: (0, 10, 60, 10, 25, 33, 70, 12, 16, 14, 24, 0)
s = 105: (0, 14, 37, 11, 51, 41, 61, 21, 36, 19, 12, 0)
s = 106: (0, 12, 32, 11, 29, 45, 74, 21, 29, 17, 22, 0)
s = 107: (0, 18, 53, 13, 74, 48, 59, 14, 19, 18, 17, 0)
s = 108: (0, 13, 75, 14, 69, 33, 99, 9, 27, 28, 12, 0)
s = 109: (0, 15, 46, 11, 46, 53, 67, 13, 22, 17, 17, 0)
s = 110: (0, 15, 48, 13, 40, 44, 88, 18, 32, 16, 12, 0)
s = 111: (0, 28, 35, 11, 47, 41, 42, 19, 19, 17, 25, 0)
s = 112: (0, 22, 35, 14, 38, 41, 42, 14, 28, 21, 21, 0)
s = 113: (0, 16, 50, 16, 38, 59, 94, 19, 22, 20, 14, 0)
s = 114: (0, 22, 53, 9, 38, 47, 91, 10, 30, 28, 14, 0)
s = 115: (0, 15, 36, 14, 34, 24, 52, 14, 25, 27, 12, 0)
s = 116: (0, 19, 52, 7, 41, 39, 60, 12, 16, 22, 19, 0)
s = 117: (0, 13, 45, 10, 32, 44, 102, 20, 24, 18, 17, 0)
s = 118: (0, 13, 48, 12, 49, 41, 65, 29, 17, 23, 26, 0)
s = 119: (0, 16, 67, 15, 38, 52, 61, 11, 18, 30, 28, 0)
s = 120: (0, 15, 32, 12, 49, 50, 52, 22, 15, 18, 22, 0)
s = 121: (0, 23, 52, 10, 33, 30, 56, 22, 13, 23, 21, 0)
s = 122: (0, 25, 40, 18, 46, 48, 71, 27, 13, 13, 14, 0)
s = 123: (0, 13, 32, 20, 42, 31, 67, 20, 16, 24, 20, 0)
s = 124: (0, 21, 49, 12, 49, 31, 52, 12, 13, 30, 17, 0)
s = 125: (0, 25, 38, 11, 45, 43, 83, 18, 14, 23, 18, 0)
s = 126: (0, 28, 80, 10, 32, 47, 97, 10, 18, 12, 12, 0)
s = 127: (0, 18, 89, 9, 45, 27, 54, 12, 18, 22, 17, 0)
s = 128: (0, 18, 37, 7, 43, 41, 92, 28, 28, 20, 19, 0)
s = 129: (0, 20, 38, 8, 49, 31, 74, 21, 14, 14, 16, 0)
s = 130: (0, 17, 70, 10, 82, 49, 51, 17, 14, 19, 12, 0)
s = 131: (0, 23, 32, 12, 44, 44, 95, 22, 17, 22, 12, 0)
s = 132: (0, 20, 33, 9, 44, 50, 57, 21, 25, 15, 13, 0)
s = 133: (0, 21, 45, 15, 53, 44, 42, 17, 19, 17, 22, 0)
s = 134: (0, 18, 61, 7, 40, 46, 47, 19, 25, 27, 14, 0)
s = 135: (0, 16, 46, 18, 35, 30, 103, 14, 18, 28, 16, 0)
s = 136: (0, 23, 42, 9, 47, 51, 72, 12, 22, 17, 17, 0)
s = 137: (0, 23, 65, 16, 38, 37, 76, 12, 14, 22, 18, 0)
s = 138: (0, 12, 60, 11, 47, 53, 67, 19, 23, 24, 19, 0)
s = 139: (0, 15, 41, 10, 39, 24, 85, 12, 32, 17, 17, 0)
s = 140: (0, 13, 60, 12, 40, 26, 89, 16, 20, 26, 18, 0)
s = 141: (0, 23, 67, 10, 52, 36, 44, 24, 21, 14, 17, 0)
s = 142: (0, 22, 71, 16, 72, 51, 111, 14, 15, 16, 21, 0)
s = 143: (0, 17, 56, 14, 53, 65, 52, 23, 15, 14, 27, 0)
s = 144: (0, 20, 57, 9, 60, 39, 106, 15, 13, 18, 20, 0)
s = 145: (0, 14, 52, 12, 32, 60, 100, 16, 14, 12, 28, 0)
s = 146: (0, 24, 49, 18, 41, 35, 67, 16, 19, 23, 14, 0)
s = 147: (0, 12, 58, 14, 64, 55, 108, 30, 21, 14, 26, 0)
s = 148: (0, 22, 62, 14, 59, 49, 62, 9, 25, 11, 15, 0)
s = 149: (0, 30, 89, 14, 60, 60, 60, 13, 28, 12, 16, 0)
s = 150: (0, 27, 67, 9, 81, 33, 55, 17, 17, 18, 10, 0)
s = 151: (0, 11, 43, 9, 45, 50, 88, 12, 13, 19, 17, 0)
s = 152: (0, 26, 53, 13, 74, 31, 48, 15, 20, 19, 12, 0)
s = 153: (0, 29, 27, 21, 59, 32, 39, 20, 12, 21, 18, 0)
s = 154: (0, 14, 34, 8, 69, 63, 72, 23, 19, 22, 26, 0)
s = 155: (0, 22, 43, 11, 85, 71, 64, 14, 22, 23, 14, 0)
s = 156: (0, 19, 42, 10, 40, 33, 75, 24, 27, 23, 19, 0)
s = 157: (0, 18, 43, 11, 47, 42, 51, 18, 20, 20, 15, 0)
s = 158: (0, 14, 48, 15, 52, 34, 49, 16, 21, 17, 16, 0)
s = 159: (0, 23, 59, 17, 33, 53, 62, 12, 29, 14, 14, 0)
s = 160: (0, 16, 42, 16, 43, 29, 67, 17, 24, 18, 24, 0)
s = 161: (0, 16, 40, 9, 28, 24, 105, 15, 26, 23, 22, 0)
s = 162: (0, 21, 34, 15, 84, 26, 71, 16, 13, 14, 14, 0)
s = 163: (0, 20, 28, 16, 56, 58, 69, 15, 23, 20, 24, 0)
s = 164: (0, 17, 54, 13, 65, 32, 105, 22, 23, 16, 12, 0)
s = 165: (0, 16, 67, 8, 49, 66, 67, 13, 17, 23, 12, 0)
s = 166: (0, 15, 51, 15, 38, 35, 99, 26, 32, 13, 19, 0)
s = 167: (0, 13, 46, 16, 63, 26, 42, 17, 16, 13, 21, 0)
s = 168: (0, 23, 34, 11, 54, 33, 71, 16, 23, 19, 28, 0)
s = 169: (0, 14, 59, 16, 45, 39, 94, 12, 18, 16, 21, 0)
s = 170: (0, 16, 49, 15, 57, 27, 55, 18, 23, 13, 17, 0)
s = 171: (0, 17, 42, 16, 41, 38, 70, 12, 17, 25, 25, 0)
s = 172: (0, 18, 63, 15, 42, 32, 55, 19, 16, 13, 12, 0)
s = 173: (0, 14, 29, 21, 55, 42, 78, 20, 30, 14, 13, 0)
s = 174: (0, 13, 42, 11, 41, 41, 59, 18, 22, 23, 30, 0)
s = 175: (0, 28, 52, 10, 51, 29, 67, 13, 25, 15, 23, 0)
s = 176: (0, 17, 62, 16, 30, 35, 69, 25, 21, 23, 18, 0)
s = 177: (0, 10, 55, 16, 35, 56, 78, 21, 24, 19, 24, 0)
s = 178: (0, 19, 41, 14, 33, 56, 100, 17, 19, 16, 17, 0)
s = 179: (0, 21, 52, 11, 37, 39, 90, 26, 18, 27, 13, 0)
s = 180: (0, 11, 83, 15, 41, 25, 98, 25, 15, 14, 30, 0)
s = 181: (0, 15, 57, 11, 36, 51, 100, 12, 24, 16, 14, 0)
s = 182: (0, 25, 54, 13, 66, 46, 96, 15, 16, 16, 18, 0)
s = 183: (0, 15, 42, 13, 40, 31, 82, 12, 19, 19, 18, 0)
s = 184: (0, 18, 40, 16, 75, 23, 85, 13, 23, 23, 28, 0)
s = 185: (0, 16, 51, 16, 81, 35, 56, 26, 22, 28, 11, 0)
s = 186: (0, 18, 37, 9, 60, 36, 78, 15, 37, 14, 12, 0)
s = 187: (0, 12, 33, 18, 50, 27, 87, 16, 24, 13, 19, 0)
s = 188: (0, 29, 60, 12, 33, 56, 79, 10, 35, 15, 12, 0)
s = 189: (0, 13, 38, 18, 51, 28, 100, 21, 20, 17, 18, 0)
s = 190: (0, 16, 61, 20, 35, 28, 59, 13, 26, 22, 24, 0)
s = 191: (0, 15, 39, 15, 30, 39, 73, 10, 14, 14, 29, 0)
s = 192: (0, 22, 46, 9, 41, 26, 86, 11, 13, 20, 18, 0)
s = 193: (0, 22, 44, 17, 31, 56, 74, 13, 24, 29, 22, 0)
s = 194: (0, 18, 29, 14, 44, 61, 79, 21, 31, 11, 15, 0)
s = 195: (0, 12, 52, 20, 55, 45, 50, 20, 26, 12, 26, 0)
s = 196: (0, 13, 52, 10, 30, 48, 69, 24, 29, 13, 17, 0)
s = 197: (0, 16, 58, 14, 48, 33, 51, 22, 18, 26, 28, 0)
s = 198: (0, 19, 55, 19, 58, 63, 59, 18, 16, 28, 20, 0)
s = 199: (0, 15, 44, 13, 47, 58, 70, 14, 26, 17, 20, 0)
s = 200: (0, 12, 41, 14, 41, 29, 56, 14, 18, 29, 17, 0)
************************************************************************
ES/LS-VALUES:
jobnr.   ES(i)    LS(i)
------------------------------------------------------------------------
  0        0        0
  1        0       49
  2        0       65
  3        0       48
  4        4       55
  5        6       54
  6       18       67
  7       18       74
  8        8       78
  9       31       80
 10       21       78
 11       34       84
************************************************************************
BIG-M-VALUES:
M1 = 50, M2 = 306
************************************************************************
